
;this file is automatically generated: Tue Mar 02 15:25:51 CST 2021

;declarations generated

(declare-fun type_3ff03f72_d199_4736_a8f6_b0156696aa6b_Class8 ( Int) Bool)
(declare-fun type_3ff03f72_d199_4736_a8f6_b0156696aa6b_Class9 ( Int) Bool)
(declare-fun type_3ff03f72_d199_4736_a8f6_b0156696aa6b_Class6 ( Int) Bool)
(declare-fun type_3ff03f72_d199_4736_a8f6_b0156696aa6b_Class7 ( Int) Bool)
(declare-fun type_3ff03f72_d199_4736_a8f6_b0156696aa6b_Class4 ( Int) Bool)
(declare-fun type_3ff03f72_d199_4736_a8f6_b0156696aa6b_Class5 ( Int) Bool)
(declare-fun type_3ff03f72_d199_4736_a8f6_b0156696aa6b_Class2 ( Int) Bool)
(declare-fun type_3ff03f72_d199_4736_a8f6_b0156696aa6b_Class3 ( Int) Bool)
(declare-fun type_3ff03f72_d199_4736_a8f6_b0156696aa6b_Class0 ( Int) Bool)
(declare-fun type_3ff03f72_d199_4736_a8f6_b0156696aa6b_Class1 ( Int) Bool)
(declare-fun oclExcludes ( Int Int) Bool)
(declare-fun Cardinality ( Int) Int)
(declare-fun type_3ff03f72_d199_4736_a8f6_b0156696aa6b_Class27 ( Int) Bool)
(declare-fun type_3ff03f72_d199_4736_a8f6_b0156696aa6b_Class26 ( Int) Bool)
(declare-fun type_3ff03f72_d199_4736_a8f6_b0156696aa6b_Class25 ( Int) Bool)
(declare-fun type_3ff03f72_d199_4736_a8f6_b0156696aa6b_Class24 ( Int) Bool)
(declare-fun type_3ff03f72_d199_4736_a8f6_b0156696aa6b_Class29 ( Int) Bool)
(declare-fun type_3ff03f72_d199_4736_a8f6_b0156696aa6b_Class28 ( Int) Bool)
(declare-fun type_3ff03f72_d199_4736_a8f6_b0156696aa6b_Class23 ( Int) Bool)
(declare-fun type_3ff03f72_d199_4736_a8f6_b0156696aa6b_Class22 ( Int) Bool)
(declare-fun type_3ff03f72_d199_4736_a8f6_b0156696aa6b_Class21 ( Int) Bool)
(declare-fun type_3ff03f72_d199_4736_a8f6_b0156696aa6b_Class20 ( Int) Bool)
(declare-fun type_3ff03f72_d199_4736_a8f6_b0156696aa6b_Class38 ( Int) Bool)
(declare-fun type_3ff03f72_d199_4736_a8f6_b0156696aa6b_Class37 ( Int) Bool)
(declare-fun type_3ff03f72_d199_4736_a8f6_b0156696aa6b_Class36 ( Int) Bool)
(declare-fun type_3ff03f72_d199_4736_a8f6_b0156696aa6b_Class35 ( Int) Bool)
(declare-fun type_3ff03f72_d199_4736_a8f6_b0156696aa6b_Class39 ( Int) Bool)
(declare-fun type_3ff03f72_d199_4736_a8f6_b0156696aa6b_Class30 ( Int) Bool)
(declare-fun type_3ff03f72_d199_4736_a8f6_b0156696aa6b_Class34 ( Int) Bool)
(declare-fun type_3ff03f72_d199_4736_a8f6_b0156696aa6b_Class33 ( Int) Bool)
(declare-fun type_3ff03f72_d199_4736_a8f6_b0156696aa6b_Class32 ( Int) Bool)
(declare-fun type_3ff03f72_d199_4736_a8f6_b0156696aa6b_Class31 ( Int) Bool)
(declare-fun type_3ff03f72_d199_4736_a8f6_b0156696aa6b_Class49 ( Int) Bool)
(declare-fun type_3ff03f72_d199_4736_a8f6_b0156696aa6b_Class48 ( Int) Bool)
(declare-fun type_3ff03f72_d199_4736_a8f6_b0156696aa6b_Class47 ( Int) Bool)
(declare-fun type_3ff03f72_d199_4736_a8f6_b0156696aa6b_Class46 ( Int) Bool)
(declare-fun type_3ff03f72_d199_4736_a8f6_b0156696aa6b_Class41 ( Int) Bool)
(declare-fun type_3ff03f72_d199_4736_a8f6_b0156696aa6b_Class40 ( Int) Bool)
(declare-fun type_3ff03f72_d199_4736_a8f6_b0156696aa6b_Class45 ( Int) Bool)
(declare-fun type_3ff03f72_d199_4736_a8f6_b0156696aa6b_Class44 ( Int) Bool)
(declare-fun type_3ff03f72_d199_4736_a8f6_b0156696aa6b_Class43 ( Int) Bool)
(declare-fun type_3ff03f72_d199_4736_a8f6_b0156696aa6b_Class42 ( Int) Bool)
(declare-fun type_3ff03f72_d199_4736_a8f6_b0156696aa6b_Class52 ( Int) Bool)
(declare-fun type_3ff03f72_d199_4736_a8f6_b0156696aa6b_Class51 ( Int) Bool)
(declare-fun type_3ff03f72_d199_4736_a8f6_b0156696aa6b_Class50 ( Int) Bool)
(declare-fun type_3ff03f72_d199_4736_a8f6_b0156696aa6b_Class55 ( Int) Bool)
(declare-fun type_3ff03f72_d199_4736_a8f6_b0156696aa6b_Class54 ( Int) Bool)
(declare-fun type_3ff03f72_d199_4736_a8f6_b0156696aa6b_Class53 ( Int) Bool)
(declare-fun class4_Class4IntAttr4 ( Int) Int)
(declare-fun class4_Class4IntAttr3 ( Int) Int)
(declare-fun type_3ff03f72_d199_4736_a8f6_b0156696aa6b_Class16 ( Int) Bool)
(declare-fun type_3ff03f72_d199_4736_a8f6_b0156696aa6b_Class15 ( Int) Bool)
(declare-fun type_3ff03f72_d199_4736_a8f6_b0156696aa6b_Class14 ( Int) Bool)
(declare-fun type_3ff03f72_d199_4736_a8f6_b0156696aa6b_Class13 ( Int) Bool)
(declare-fun type_3ff03f72_d199_4736_a8f6_b0156696aa6b_Class19 ( Int) Bool)
(declare-fun type_3ff03f72_d199_4736_a8f6_b0156696aa6b_Class18 ( Int) Bool)
(declare-fun type_3ff03f72_d199_4736_a8f6_b0156696aa6b_Class17 ( Int) Bool)
(declare-fun type_3ff03f72_d199_4736_a8f6_b0156696aa6b_Class12 ( Int) Bool)
(declare-fun type_3ff03f72_d199_4736_a8f6_b0156696aa6b_Class11 ( Int) Bool)
(declare-fun type_3ff03f72_d199_4736_a8f6_b0156696aa6b_Class10 ( Int) Bool)
(declare-fun oclSelect ( Int Bool) Int)
(declare-fun Enum0 ( Int) Int)
(declare-fun Enum1 ( Int) Int)
(declare-fun Enum2 ( Int) Int)
(declare-fun container_ ( Int) Int)
(declare-fun obj_9d7a35ca_bc71_4626_ad57_fef4ce50267c ( Int) Int)
(declare-fun oclIncludes ( Int Int) Bool)
(declare-fun ObjAt ( Int Int) Int)

;formula(s) generated
(assert (! (forall ((v Int)) (=> ( type_3ff03f72_d199_4736_a8f6_b0156696aa6b_Class4 v )  (< ( class4_Class4IntAttr3 ( obj_9d7a35ca_bc71_4626_ad57_fef4ce50267c v )  )  8))):named l0))
(assert (! (forall ((c4_2 Int)(c4_1 Int)) (=> (and ( type_3ff03f72_d199_4736_a8f6_b0156696aa6b_Class4 c4_1 )  ( type_3ff03f72_d199_4736_a8f6_b0156696aa6b_Class4 c4_2 ) ) (<= ( class4_Class4IntAttr4 ( obj_9d7a35ca_bc71_4626_ad57_fef4ce50267c c4_1 )  )  ( class4_Class4IntAttr3 ( obj_9d7a35ca_bc71_4626_ad57_fef4ce50267c c4_2 )  ) ))):named l1))
(assert (! (exists ((o Int)) ( type_3ff03f72_d199_4736_a8f6_b0156696aa6b_Class0 ( obj_9d7a35ca_bc71_4626_ad57_fef4ce50267c o )  ) ):named c0))
(assert (! (exists ((o Int)) (and (and (and (and (and ( type_3ff03f72_d199_4736_a8f6_b0156696aa6b_Class1 ( obj_9d7a35ca_bc71_4626_ad57_fef4ce50267c o )  )  ( type_3ff03f72_d199_4736_a8f6_b0156696aa6b_Class45 ( obj_9d7a35ca_bc71_4626_ad57_fef4ce50267c o )  ) ) ( type_3ff03f72_d199_4736_a8f6_b0156696aa6b_Class12 ( obj_9d7a35ca_bc71_4626_ad57_fef4ce50267c o )  ) ) ( type_3ff03f72_d199_4736_a8f6_b0156696aa6b_Class33 ( obj_9d7a35ca_bc71_4626_ad57_fef4ce50267c o )  ) ) ( type_3ff03f72_d199_4736_a8f6_b0156696aa6b_Class22 ( obj_9d7a35ca_bc71_4626_ad57_fef4ce50267c o )  ) ) ( type_3ff03f72_d199_4736_a8f6_b0156696aa6b_Class39 ( obj_9d7a35ca_bc71_4626_ad57_fef4ce50267c o )  ) )):named c1))
(assert (! (exists ((o Int)) (and (and (and (and (and (and (and (and (and ( type_3ff03f72_d199_4736_a8f6_b0156696aa6b_Class10 ( obj_9d7a35ca_bc71_4626_ad57_fef4ce50267c o )  )  ( type_3ff03f72_d199_4736_a8f6_b0156696aa6b_Class45 ( obj_9d7a35ca_bc71_4626_ad57_fef4ce50267c o )  ) ) ( type_3ff03f72_d199_4736_a8f6_b0156696aa6b_Class12 ( obj_9d7a35ca_bc71_4626_ad57_fef4ce50267c o )  ) ) ( type_3ff03f72_d199_4736_a8f6_b0156696aa6b_Class55 ( obj_9d7a35ca_bc71_4626_ad57_fef4ce50267c o )  ) ) ( type_3ff03f72_d199_4736_a8f6_b0156696aa6b_Class33 ( obj_9d7a35ca_bc71_4626_ad57_fef4ce50267c o )  ) ) ( type_3ff03f72_d199_4736_a8f6_b0156696aa6b_Class22 ( obj_9d7a35ca_bc71_4626_ad57_fef4ce50267c o )  ) ) ( type_3ff03f72_d199_4736_a8f6_b0156696aa6b_Class29 ( obj_9d7a35ca_bc71_4626_ad57_fef4ce50267c o )  ) ) ( type_3ff03f72_d199_4736_a8f6_b0156696aa6b_Class39 ( obj_9d7a35ca_bc71_4626_ad57_fef4ce50267c o )  ) ) ( type_3ff03f72_d199_4736_a8f6_b0156696aa6b_Class50 ( obj_9d7a35ca_bc71_4626_ad57_fef4ce50267c o )  ) ) ( type_3ff03f72_d199_4736_a8f6_b0156696aa6b_Class41 ( obj_9d7a35ca_bc71_4626_ad57_fef4ce50267c o )  ) )):named c2))
(assert (! (exists ((o Int)) ( type_3ff03f72_d199_4736_a8f6_b0156696aa6b_Class11 ( obj_9d7a35ca_bc71_4626_ad57_fef4ce50267c o )  ) ):named c3))
(assert (! (exists ((o Int)) (and (and (and ( type_3ff03f72_d199_4736_a8f6_b0156696aa6b_Class12 ( obj_9d7a35ca_bc71_4626_ad57_fef4ce50267c o )  )  ( type_3ff03f72_d199_4736_a8f6_b0156696aa6b_Class33 ( obj_9d7a35ca_bc71_4626_ad57_fef4ce50267c o )  ) ) ( type_3ff03f72_d199_4736_a8f6_b0156696aa6b_Class22 ( obj_9d7a35ca_bc71_4626_ad57_fef4ce50267c o )  ) ) ( type_3ff03f72_d199_4736_a8f6_b0156696aa6b_Class39 ( obj_9d7a35ca_bc71_4626_ad57_fef4ce50267c o )  ) )):named c4))
(assert (! (exists ((o Int)) (and (and (and (and (and (and (and (and (and ( type_3ff03f72_d199_4736_a8f6_b0156696aa6b_Class13 ( obj_9d7a35ca_bc71_4626_ad57_fef4ce50267c o )  )  ( type_3ff03f72_d199_4736_a8f6_b0156696aa6b_Class45 ( obj_9d7a35ca_bc71_4626_ad57_fef4ce50267c o )  ) ) ( type_3ff03f72_d199_4736_a8f6_b0156696aa6b_Class12 ( obj_9d7a35ca_bc71_4626_ad57_fef4ce50267c o )  ) ) ( type_3ff03f72_d199_4736_a8f6_b0156696aa6b_Class55 ( obj_9d7a35ca_bc71_4626_ad57_fef4ce50267c o )  ) ) ( type_3ff03f72_d199_4736_a8f6_b0156696aa6b_Class33 ( obj_9d7a35ca_bc71_4626_ad57_fef4ce50267c o )  ) ) ( type_3ff03f72_d199_4736_a8f6_b0156696aa6b_Class22 ( obj_9d7a35ca_bc71_4626_ad57_fef4ce50267c o )  ) ) ( type_3ff03f72_d199_4736_a8f6_b0156696aa6b_Class29 ( obj_9d7a35ca_bc71_4626_ad57_fef4ce50267c o )  ) ) ( type_3ff03f72_d199_4736_a8f6_b0156696aa6b_Class39 ( obj_9d7a35ca_bc71_4626_ad57_fef4ce50267c o )  ) ) ( type_3ff03f72_d199_4736_a8f6_b0156696aa6b_Class50 ( obj_9d7a35ca_bc71_4626_ad57_fef4ce50267c o )  ) ) ( type_3ff03f72_d199_4736_a8f6_b0156696aa6b_Class41 ( obj_9d7a35ca_bc71_4626_ad57_fef4ce50267c o )  ) )):named c5))
(assert (! (exists ((o Int)) (and (and (and (and (and (and (and (and (and ( type_3ff03f72_d199_4736_a8f6_b0156696aa6b_Class14 ( obj_9d7a35ca_bc71_4626_ad57_fef4ce50267c o )  )  ( type_3ff03f72_d199_4736_a8f6_b0156696aa6b_Class45 ( obj_9d7a35ca_bc71_4626_ad57_fef4ce50267c o )  ) ) ( type_3ff03f72_d199_4736_a8f6_b0156696aa6b_Class12 ( obj_9d7a35ca_bc71_4626_ad57_fef4ce50267c o )  ) ) ( type_3ff03f72_d199_4736_a8f6_b0156696aa6b_Class55 ( obj_9d7a35ca_bc71_4626_ad57_fef4ce50267c o )  ) ) ( type_3ff03f72_d199_4736_a8f6_b0156696aa6b_Class33 ( obj_9d7a35ca_bc71_4626_ad57_fef4ce50267c o )  ) ) ( type_3ff03f72_d199_4736_a8f6_b0156696aa6b_Class22 ( obj_9d7a35ca_bc71_4626_ad57_fef4ce50267c o )  ) ) ( type_3ff03f72_d199_4736_a8f6_b0156696aa6b_Class29 ( obj_9d7a35ca_bc71_4626_ad57_fef4ce50267c o )  ) ) ( type_3ff03f72_d199_4736_a8f6_b0156696aa6b_Class39 ( obj_9d7a35ca_bc71_4626_ad57_fef4ce50267c o )  ) ) ( type_3ff03f72_d199_4736_a8f6_b0156696aa6b_Class50 ( obj_9d7a35ca_bc71_4626_ad57_fef4ce50267c o )  ) ) ( type_3ff03f72_d199_4736_a8f6_b0156696aa6b_Class41 ( obj_9d7a35ca_bc71_4626_ad57_fef4ce50267c o )  ) )):named c6))
(assert (! (exists ((o Int)) ( type_3ff03f72_d199_4736_a8f6_b0156696aa6b_Class15 ( obj_9d7a35ca_bc71_4626_ad57_fef4ce50267c o )  ) ):named c7))
(assert (! (exists ((o Int)) (and (and (and (and (and ( type_3ff03f72_d199_4736_a8f6_b0156696aa6b_Class16 ( obj_9d7a35ca_bc71_4626_ad57_fef4ce50267c o )  )  ( type_3ff03f72_d199_4736_a8f6_b0156696aa6b_Class45 ( obj_9d7a35ca_bc71_4626_ad57_fef4ce50267c o )  ) ) ( type_3ff03f72_d199_4736_a8f6_b0156696aa6b_Class12 ( obj_9d7a35ca_bc71_4626_ad57_fef4ce50267c o )  ) ) ( type_3ff03f72_d199_4736_a8f6_b0156696aa6b_Class33 ( obj_9d7a35ca_bc71_4626_ad57_fef4ce50267c o )  ) ) ( type_3ff03f72_d199_4736_a8f6_b0156696aa6b_Class22 ( obj_9d7a35ca_bc71_4626_ad57_fef4ce50267c o )  ) ) ( type_3ff03f72_d199_4736_a8f6_b0156696aa6b_Class39 ( obj_9d7a35ca_bc71_4626_ad57_fef4ce50267c o )  ) )):named c8))
(assert (! (exists ((o Int)) ( type_3ff03f72_d199_4736_a8f6_b0156696aa6b_Class17 ( obj_9d7a35ca_bc71_4626_ad57_fef4ce50267c o )  ) ):named c9))
(assert (! (exists ((o Int)) (and (and (and ( type_3ff03f72_d199_4736_a8f6_b0156696aa6b_Class18 ( obj_9d7a35ca_bc71_4626_ad57_fef4ce50267c o )  )  ( type_3ff03f72_d199_4736_a8f6_b0156696aa6b_Class25 ( obj_9d7a35ca_bc71_4626_ad57_fef4ce50267c o )  ) ) ( type_3ff03f72_d199_4736_a8f6_b0156696aa6b_Class24 ( obj_9d7a35ca_bc71_4626_ad57_fef4ce50267c o )  ) ) ( type_3ff03f72_d199_4736_a8f6_b0156696aa6b_Class39 ( obj_9d7a35ca_bc71_4626_ad57_fef4ce50267c o )  ) )):named c10))
(assert (! (exists ((o Int)) (and (and (and (and (and (and (and (and (and ( type_3ff03f72_d199_4736_a8f6_b0156696aa6b_Class19 ( obj_9d7a35ca_bc71_4626_ad57_fef4ce50267c o )  )  ( type_3ff03f72_d199_4736_a8f6_b0156696aa6b_Class45 ( obj_9d7a35ca_bc71_4626_ad57_fef4ce50267c o )  ) ) ( type_3ff03f72_d199_4736_a8f6_b0156696aa6b_Class12 ( obj_9d7a35ca_bc71_4626_ad57_fef4ce50267c o )  ) ) ( type_3ff03f72_d199_4736_a8f6_b0156696aa6b_Class55 ( obj_9d7a35ca_bc71_4626_ad57_fef4ce50267c o )  ) ) ( type_3ff03f72_d199_4736_a8f6_b0156696aa6b_Class33 ( obj_9d7a35ca_bc71_4626_ad57_fef4ce50267c o )  ) ) ( type_3ff03f72_d199_4736_a8f6_b0156696aa6b_Class22 ( obj_9d7a35ca_bc71_4626_ad57_fef4ce50267c o )  ) ) ( type_3ff03f72_d199_4736_a8f6_b0156696aa6b_Class29 ( obj_9d7a35ca_bc71_4626_ad57_fef4ce50267c o )  ) ) ( type_3ff03f72_d199_4736_a8f6_b0156696aa6b_Class39 ( obj_9d7a35ca_bc71_4626_ad57_fef4ce50267c o )  ) ) ( type_3ff03f72_d199_4736_a8f6_b0156696aa6b_Class50 ( obj_9d7a35ca_bc71_4626_ad57_fef4ce50267c o )  ) ) ( type_3ff03f72_d199_4736_a8f6_b0156696aa6b_Class41 ( obj_9d7a35ca_bc71_4626_ad57_fef4ce50267c o )  ) )):named c11))
(assert (! (exists ((o Int)) ( type_3ff03f72_d199_4736_a8f6_b0156696aa6b_Class2 ( obj_9d7a35ca_bc71_4626_ad57_fef4ce50267c o )  ) ):named c12))
(assert (! (exists ((o Int)) ( type_3ff03f72_d199_4736_a8f6_b0156696aa6b_Class20 ( obj_9d7a35ca_bc71_4626_ad57_fef4ce50267c o )  ) ):named c13))
(assert (! (exists ((o Int)) (and (and (and (and (and (and (and (and (and ( type_3ff03f72_d199_4736_a8f6_b0156696aa6b_Class21 ( obj_9d7a35ca_bc71_4626_ad57_fef4ce50267c o )  )  ( type_3ff03f72_d199_4736_a8f6_b0156696aa6b_Class45 ( obj_9d7a35ca_bc71_4626_ad57_fef4ce50267c o )  ) ) ( type_3ff03f72_d199_4736_a8f6_b0156696aa6b_Class12 ( obj_9d7a35ca_bc71_4626_ad57_fef4ce50267c o )  ) ) ( type_3ff03f72_d199_4736_a8f6_b0156696aa6b_Class33 ( obj_9d7a35ca_bc71_4626_ad57_fef4ce50267c o )  ) ) ( type_3ff03f72_d199_4736_a8f6_b0156696aa6b_Class22 ( obj_9d7a35ca_bc71_4626_ad57_fef4ce50267c o )  ) ) ( type_3ff03f72_d199_4736_a8f6_b0156696aa6b_Class16 ( obj_9d7a35ca_bc71_4626_ad57_fef4ce50267c o )  ) ) ( type_3ff03f72_d199_4736_a8f6_b0156696aa6b_Class29 ( obj_9d7a35ca_bc71_4626_ad57_fef4ce50267c o )  ) ) ( type_3ff03f72_d199_4736_a8f6_b0156696aa6b_Class39 ( obj_9d7a35ca_bc71_4626_ad57_fef4ce50267c o )  ) ) ( type_3ff03f72_d199_4736_a8f6_b0156696aa6b_Class41 ( obj_9d7a35ca_bc71_4626_ad57_fef4ce50267c o )  ) ) ( type_3ff03f72_d199_4736_a8f6_b0156696aa6b_Class51 ( obj_9d7a35ca_bc71_4626_ad57_fef4ce50267c o )  ) )):named c14))
(assert (! (exists ((o Int)) (and ( type_3ff03f72_d199_4736_a8f6_b0156696aa6b_Class22 ( obj_9d7a35ca_bc71_4626_ad57_fef4ce50267c o )  )  ( type_3ff03f72_d199_4736_a8f6_b0156696aa6b_Class39 ( obj_9d7a35ca_bc71_4626_ad57_fef4ce50267c o )  ) )):named c15))
(assert (! (exists ((o Int)) (and (and (and (and ( type_3ff03f72_d199_4736_a8f6_b0156696aa6b_Class23 ( obj_9d7a35ca_bc71_4626_ad57_fef4ce50267c o )  )  ( type_3ff03f72_d199_4736_a8f6_b0156696aa6b_Class25 ( obj_9d7a35ca_bc71_4626_ad57_fef4ce50267c o )  ) ) ( type_3ff03f72_d199_4736_a8f6_b0156696aa6b_Class24 ( obj_9d7a35ca_bc71_4626_ad57_fef4ce50267c o )  ) ) ( type_3ff03f72_d199_4736_a8f6_b0156696aa6b_Class39 ( obj_9d7a35ca_bc71_4626_ad57_fef4ce50267c o )  ) ) ( type_3ff03f72_d199_4736_a8f6_b0156696aa6b_Class5 ( obj_9d7a35ca_bc71_4626_ad57_fef4ce50267c o )  ) )):named c16))
(assert (! (exists ((o Int)) (and (and ( type_3ff03f72_d199_4736_a8f6_b0156696aa6b_Class24 ( obj_9d7a35ca_bc71_4626_ad57_fef4ce50267c o )  )  ( type_3ff03f72_d199_4736_a8f6_b0156696aa6b_Class25 ( obj_9d7a35ca_bc71_4626_ad57_fef4ce50267c o )  ) ) ( type_3ff03f72_d199_4736_a8f6_b0156696aa6b_Class39 ( obj_9d7a35ca_bc71_4626_ad57_fef4ce50267c o )  ) )):named c17))
(assert (! (exists ((o Int)) (and ( type_3ff03f72_d199_4736_a8f6_b0156696aa6b_Class25 ( obj_9d7a35ca_bc71_4626_ad57_fef4ce50267c o )  )  ( type_3ff03f72_d199_4736_a8f6_b0156696aa6b_Class39 ( obj_9d7a35ca_bc71_4626_ad57_fef4ce50267c o )  ) )):named c18))
(assert (! (exists ((o Int)) ( type_3ff03f72_d199_4736_a8f6_b0156696aa6b_Class26 ( obj_9d7a35ca_bc71_4626_ad57_fef4ce50267c o )  ) ):named c19))
(assert (! (exists ((o Int)) ( type_3ff03f72_d199_4736_a8f6_b0156696aa6b_Class27 ( obj_9d7a35ca_bc71_4626_ad57_fef4ce50267c o )  ) ):named c20))
(assert (! (exists ((o Int)) (and (and (and (and (and (and (and ( type_3ff03f72_d199_4736_a8f6_b0156696aa6b_Class28 ( obj_9d7a35ca_bc71_4626_ad57_fef4ce50267c o )  )  ( type_3ff03f72_d199_4736_a8f6_b0156696aa6b_Class45 ( obj_9d7a35ca_bc71_4626_ad57_fef4ce50267c o )  ) ) ( type_3ff03f72_d199_4736_a8f6_b0156696aa6b_Class12 ( obj_9d7a35ca_bc71_4626_ad57_fef4ce50267c o )  ) ) ( type_3ff03f72_d199_4736_a8f6_b0156696aa6b_Class33 ( obj_9d7a35ca_bc71_4626_ad57_fef4ce50267c o )  ) ) ( type_3ff03f72_d199_4736_a8f6_b0156696aa6b_Class22 ( obj_9d7a35ca_bc71_4626_ad57_fef4ce50267c o )  ) ) ( type_3ff03f72_d199_4736_a8f6_b0156696aa6b_Class29 ( obj_9d7a35ca_bc71_4626_ad57_fef4ce50267c o )  ) ) ( type_3ff03f72_d199_4736_a8f6_b0156696aa6b_Class39 ( obj_9d7a35ca_bc71_4626_ad57_fef4ce50267c o )  ) ) ( type_3ff03f72_d199_4736_a8f6_b0156696aa6b_Class41 ( obj_9d7a35ca_bc71_4626_ad57_fef4ce50267c o )  ) )):named c21))
(assert (! (exists ((o Int)) (and (and (and (and (and (and ( type_3ff03f72_d199_4736_a8f6_b0156696aa6b_Class29 ( obj_9d7a35ca_bc71_4626_ad57_fef4ce50267c o )  )  ( type_3ff03f72_d199_4736_a8f6_b0156696aa6b_Class45 ( obj_9d7a35ca_bc71_4626_ad57_fef4ce50267c o )  ) ) ( type_3ff03f72_d199_4736_a8f6_b0156696aa6b_Class12 ( obj_9d7a35ca_bc71_4626_ad57_fef4ce50267c o )  ) ) ( type_3ff03f72_d199_4736_a8f6_b0156696aa6b_Class33 ( obj_9d7a35ca_bc71_4626_ad57_fef4ce50267c o )  ) ) ( type_3ff03f72_d199_4736_a8f6_b0156696aa6b_Class22 ( obj_9d7a35ca_bc71_4626_ad57_fef4ce50267c o )  ) ) ( type_3ff03f72_d199_4736_a8f6_b0156696aa6b_Class39 ( obj_9d7a35ca_bc71_4626_ad57_fef4ce50267c o )  ) ) ( type_3ff03f72_d199_4736_a8f6_b0156696aa6b_Class41 ( obj_9d7a35ca_bc71_4626_ad57_fef4ce50267c o )  ) )):named c22))
(assert (! (exists ((o Int)) (and (and (and ( type_3ff03f72_d199_4736_a8f6_b0156696aa6b_Class3 ( obj_9d7a35ca_bc71_4626_ad57_fef4ce50267c o )  )  ( type_3ff03f72_d199_4736_a8f6_b0156696aa6b_Class25 ( obj_9d7a35ca_bc71_4626_ad57_fef4ce50267c o )  ) ) ( type_3ff03f72_d199_4736_a8f6_b0156696aa6b_Class24 ( obj_9d7a35ca_bc71_4626_ad57_fef4ce50267c o )  ) ) ( type_3ff03f72_d199_4736_a8f6_b0156696aa6b_Class39 ( obj_9d7a35ca_bc71_4626_ad57_fef4ce50267c o )  ) )):named c23))
(assert (! (exists ((o Int)) (and ( type_3ff03f72_d199_4736_a8f6_b0156696aa6b_Class30 ( obj_9d7a35ca_bc71_4626_ad57_fef4ce50267c o )  )  ( type_3ff03f72_d199_4736_a8f6_b0156696aa6b_Class39 ( obj_9d7a35ca_bc71_4626_ad57_fef4ce50267c o )  ) )):named c24))
(assert (! (exists ((o Int)) (and (and (and (and (and ( type_3ff03f72_d199_4736_a8f6_b0156696aa6b_Class31 ( obj_9d7a35ca_bc71_4626_ad57_fef4ce50267c o )  )  ( type_3ff03f72_d199_4736_a8f6_b0156696aa6b_Class45 ( obj_9d7a35ca_bc71_4626_ad57_fef4ce50267c o )  ) ) ( type_3ff03f72_d199_4736_a8f6_b0156696aa6b_Class12 ( obj_9d7a35ca_bc71_4626_ad57_fef4ce50267c o )  ) ) ( type_3ff03f72_d199_4736_a8f6_b0156696aa6b_Class33 ( obj_9d7a35ca_bc71_4626_ad57_fef4ce50267c o )  ) ) ( type_3ff03f72_d199_4736_a8f6_b0156696aa6b_Class22 ( obj_9d7a35ca_bc71_4626_ad57_fef4ce50267c o )  ) ) ( type_3ff03f72_d199_4736_a8f6_b0156696aa6b_Class39 ( obj_9d7a35ca_bc71_4626_ad57_fef4ce50267c o )  ) )):named c25))
(assert (! (exists ((o Int)) ( type_3ff03f72_d199_4736_a8f6_b0156696aa6b_Class32 ( obj_9d7a35ca_bc71_4626_ad57_fef4ce50267c o )  ) ):named c26))
(assert (! (exists ((o Int)) (and (and ( type_3ff03f72_d199_4736_a8f6_b0156696aa6b_Class33 ( obj_9d7a35ca_bc71_4626_ad57_fef4ce50267c o )  )  ( type_3ff03f72_d199_4736_a8f6_b0156696aa6b_Class22 ( obj_9d7a35ca_bc71_4626_ad57_fef4ce50267c o )  ) ) ( type_3ff03f72_d199_4736_a8f6_b0156696aa6b_Class39 ( obj_9d7a35ca_bc71_4626_ad57_fef4ce50267c o )  ) )):named c27))
(assert (! (exists ((o Int)) (and (and (and ( type_3ff03f72_d199_4736_a8f6_b0156696aa6b_Class34 ( obj_9d7a35ca_bc71_4626_ad57_fef4ce50267c o )  )  ( type_3ff03f72_d199_4736_a8f6_b0156696aa6b_Class25 ( obj_9d7a35ca_bc71_4626_ad57_fef4ce50267c o )  ) ) ( type_3ff03f72_d199_4736_a8f6_b0156696aa6b_Class24 ( obj_9d7a35ca_bc71_4626_ad57_fef4ce50267c o )  ) ) ( type_3ff03f72_d199_4736_a8f6_b0156696aa6b_Class39 ( obj_9d7a35ca_bc71_4626_ad57_fef4ce50267c o )  ) )):named c28))
(assert (! (exists ((o Int)) (and (and ( type_3ff03f72_d199_4736_a8f6_b0156696aa6b_Class35 ( obj_9d7a35ca_bc71_4626_ad57_fef4ce50267c o )  )  ( type_3ff03f72_d199_4736_a8f6_b0156696aa6b_Class39 ( obj_9d7a35ca_bc71_4626_ad57_fef4ce50267c o )  ) ) ( type_3ff03f72_d199_4736_a8f6_b0156696aa6b_Class30 ( obj_9d7a35ca_bc71_4626_ad57_fef4ce50267c o )  ) )):named c29))
(assert (! (exists ((o Int)) ( type_3ff03f72_d199_4736_a8f6_b0156696aa6b_Class36 ( obj_9d7a35ca_bc71_4626_ad57_fef4ce50267c o )  ) ):named c30))
(assert (! (exists ((o Int)) ( type_3ff03f72_d199_4736_a8f6_b0156696aa6b_Class37 ( obj_9d7a35ca_bc71_4626_ad57_fef4ce50267c o )  ) ):named c31))
(assert (! (exists ((o Int)) ( type_3ff03f72_d199_4736_a8f6_b0156696aa6b_Class38 ( obj_9d7a35ca_bc71_4626_ad57_fef4ce50267c o )  ) ):named c32))
(assert (! (exists ((o Int)) ( type_3ff03f72_d199_4736_a8f6_b0156696aa6b_Class39 ( obj_9d7a35ca_bc71_4626_ad57_fef4ce50267c o )  ) ):named c33))
(assert (! (exists ((o Int)) ( type_3ff03f72_d199_4736_a8f6_b0156696aa6b_Class4 ( obj_9d7a35ca_bc71_4626_ad57_fef4ce50267c o )  ) ):named c34))
(assert (! (exists ((o Int)) (and (and (and (and (and (and (and (and (and ( type_3ff03f72_d199_4736_a8f6_b0156696aa6b_Class40 ( obj_9d7a35ca_bc71_4626_ad57_fef4ce50267c o )  )  ( type_3ff03f72_d199_4736_a8f6_b0156696aa6b_Class45 ( obj_9d7a35ca_bc71_4626_ad57_fef4ce50267c o )  ) ) ( type_3ff03f72_d199_4736_a8f6_b0156696aa6b_Class12 ( obj_9d7a35ca_bc71_4626_ad57_fef4ce50267c o )  ) ) ( type_3ff03f72_d199_4736_a8f6_b0156696aa6b_Class55 ( obj_9d7a35ca_bc71_4626_ad57_fef4ce50267c o )  ) ) ( type_3ff03f72_d199_4736_a8f6_b0156696aa6b_Class33 ( obj_9d7a35ca_bc71_4626_ad57_fef4ce50267c o )  ) ) ( type_3ff03f72_d199_4736_a8f6_b0156696aa6b_Class22 ( obj_9d7a35ca_bc71_4626_ad57_fef4ce50267c o )  ) ) ( type_3ff03f72_d199_4736_a8f6_b0156696aa6b_Class29 ( obj_9d7a35ca_bc71_4626_ad57_fef4ce50267c o )  ) ) ( type_3ff03f72_d199_4736_a8f6_b0156696aa6b_Class39 ( obj_9d7a35ca_bc71_4626_ad57_fef4ce50267c o )  ) ) ( type_3ff03f72_d199_4736_a8f6_b0156696aa6b_Class50 ( obj_9d7a35ca_bc71_4626_ad57_fef4ce50267c o )  ) ) ( type_3ff03f72_d199_4736_a8f6_b0156696aa6b_Class41 ( obj_9d7a35ca_bc71_4626_ad57_fef4ce50267c o )  ) )):named c35))
(assert (! (exists ((o Int)) (and (and (and (and (and ( type_3ff03f72_d199_4736_a8f6_b0156696aa6b_Class41 ( obj_9d7a35ca_bc71_4626_ad57_fef4ce50267c o )  )  ( type_3ff03f72_d199_4736_a8f6_b0156696aa6b_Class45 ( obj_9d7a35ca_bc71_4626_ad57_fef4ce50267c o )  ) ) ( type_3ff03f72_d199_4736_a8f6_b0156696aa6b_Class12 ( obj_9d7a35ca_bc71_4626_ad57_fef4ce50267c o )  ) ) ( type_3ff03f72_d199_4736_a8f6_b0156696aa6b_Class33 ( obj_9d7a35ca_bc71_4626_ad57_fef4ce50267c o )  ) ) ( type_3ff03f72_d199_4736_a8f6_b0156696aa6b_Class22 ( obj_9d7a35ca_bc71_4626_ad57_fef4ce50267c o )  ) ) ( type_3ff03f72_d199_4736_a8f6_b0156696aa6b_Class39 ( obj_9d7a35ca_bc71_4626_ad57_fef4ce50267c o )  ) )):named c36))
(assert (! (exists ((o Int)) (and ( type_3ff03f72_d199_4736_a8f6_b0156696aa6b_Class42 ( obj_9d7a35ca_bc71_4626_ad57_fef4ce50267c o )  )  ( type_3ff03f72_d199_4736_a8f6_b0156696aa6b_Class39 ( obj_9d7a35ca_bc71_4626_ad57_fef4ce50267c o )  ) )):named c37))
(assert (! (exists ((o Int)) ( type_3ff03f72_d199_4736_a8f6_b0156696aa6b_Class43 ( obj_9d7a35ca_bc71_4626_ad57_fef4ce50267c o )  ) ):named c38))
(assert (! (exists ((o Int)) (and (and (and (and (and (and (and ( type_3ff03f72_d199_4736_a8f6_b0156696aa6b_Class44 ( obj_9d7a35ca_bc71_4626_ad57_fef4ce50267c o )  )  ( type_3ff03f72_d199_4736_a8f6_b0156696aa6b_Class45 ( obj_9d7a35ca_bc71_4626_ad57_fef4ce50267c o )  ) ) ( type_3ff03f72_d199_4736_a8f6_b0156696aa6b_Class12 ( obj_9d7a35ca_bc71_4626_ad57_fef4ce50267c o )  ) ) ( type_3ff03f72_d199_4736_a8f6_b0156696aa6b_Class33 ( obj_9d7a35ca_bc71_4626_ad57_fef4ce50267c o )  ) ) ( type_3ff03f72_d199_4736_a8f6_b0156696aa6b_Class22 ( obj_9d7a35ca_bc71_4626_ad57_fef4ce50267c o )  ) ) ( type_3ff03f72_d199_4736_a8f6_b0156696aa6b_Class29 ( obj_9d7a35ca_bc71_4626_ad57_fef4ce50267c o )  ) ) ( type_3ff03f72_d199_4736_a8f6_b0156696aa6b_Class39 ( obj_9d7a35ca_bc71_4626_ad57_fef4ce50267c o )  ) ) ( type_3ff03f72_d199_4736_a8f6_b0156696aa6b_Class41 ( obj_9d7a35ca_bc71_4626_ad57_fef4ce50267c o )  ) )):named c39))
(assert (! (exists ((o Int)) (and (and (and (and ( type_3ff03f72_d199_4736_a8f6_b0156696aa6b_Class45 ( obj_9d7a35ca_bc71_4626_ad57_fef4ce50267c o )  )  ( type_3ff03f72_d199_4736_a8f6_b0156696aa6b_Class12 ( obj_9d7a35ca_bc71_4626_ad57_fef4ce50267c o )  ) ) ( type_3ff03f72_d199_4736_a8f6_b0156696aa6b_Class33 ( obj_9d7a35ca_bc71_4626_ad57_fef4ce50267c o )  ) ) ( type_3ff03f72_d199_4736_a8f6_b0156696aa6b_Class22 ( obj_9d7a35ca_bc71_4626_ad57_fef4ce50267c o )  ) ) ( type_3ff03f72_d199_4736_a8f6_b0156696aa6b_Class39 ( obj_9d7a35ca_bc71_4626_ad57_fef4ce50267c o )  ) )):named c40))
(assert (! (exists ((o Int)) (and (and ( type_3ff03f72_d199_4736_a8f6_b0156696aa6b_Class46 ( obj_9d7a35ca_bc71_4626_ad57_fef4ce50267c o )  )  ( type_3ff03f72_d199_4736_a8f6_b0156696aa6b_Class39 ( obj_9d7a35ca_bc71_4626_ad57_fef4ce50267c o )  ) ) ( type_3ff03f72_d199_4736_a8f6_b0156696aa6b_Class5 ( obj_9d7a35ca_bc71_4626_ad57_fef4ce50267c o )  ) )):named c41))
(assert (! (exists ((o Int)) ( type_3ff03f72_d199_4736_a8f6_b0156696aa6b_Class47 ( obj_9d7a35ca_bc71_4626_ad57_fef4ce50267c o )  ) ):named c42))
(assert (! (exists ((o Int)) (and (and (and (and (and (and (and (and (and ( type_3ff03f72_d199_4736_a8f6_b0156696aa6b_Class48 ( obj_9d7a35ca_bc71_4626_ad57_fef4ce50267c o )  )  ( type_3ff03f72_d199_4736_a8f6_b0156696aa6b_Class45 ( obj_9d7a35ca_bc71_4626_ad57_fef4ce50267c o )  ) ) ( type_3ff03f72_d199_4736_a8f6_b0156696aa6b_Class12 ( obj_9d7a35ca_bc71_4626_ad57_fef4ce50267c o )  ) ) ( type_3ff03f72_d199_4736_a8f6_b0156696aa6b_Class55 ( obj_9d7a35ca_bc71_4626_ad57_fef4ce50267c o )  ) ) ( type_3ff03f72_d199_4736_a8f6_b0156696aa6b_Class33 ( obj_9d7a35ca_bc71_4626_ad57_fef4ce50267c o )  ) ) ( type_3ff03f72_d199_4736_a8f6_b0156696aa6b_Class22 ( obj_9d7a35ca_bc71_4626_ad57_fef4ce50267c o )  ) ) ( type_3ff03f72_d199_4736_a8f6_b0156696aa6b_Class29 ( obj_9d7a35ca_bc71_4626_ad57_fef4ce50267c o )  ) ) ( type_3ff03f72_d199_4736_a8f6_b0156696aa6b_Class39 ( obj_9d7a35ca_bc71_4626_ad57_fef4ce50267c o )  ) ) ( type_3ff03f72_d199_4736_a8f6_b0156696aa6b_Class50 ( obj_9d7a35ca_bc71_4626_ad57_fef4ce50267c o )  ) ) ( type_3ff03f72_d199_4736_a8f6_b0156696aa6b_Class41 ( obj_9d7a35ca_bc71_4626_ad57_fef4ce50267c o )  ) )):named c43))
(assert (! (exists ((o Int)) (and (and (and (and (and (and (and (and (and ( type_3ff03f72_d199_4736_a8f6_b0156696aa6b_Class49 ( obj_9d7a35ca_bc71_4626_ad57_fef4ce50267c o )  )  ( type_3ff03f72_d199_4736_a8f6_b0156696aa6b_Class45 ( obj_9d7a35ca_bc71_4626_ad57_fef4ce50267c o )  ) ) ( type_3ff03f72_d199_4736_a8f6_b0156696aa6b_Class12 ( obj_9d7a35ca_bc71_4626_ad57_fef4ce50267c o )  ) ) ( type_3ff03f72_d199_4736_a8f6_b0156696aa6b_Class55 ( obj_9d7a35ca_bc71_4626_ad57_fef4ce50267c o )  ) ) ( type_3ff03f72_d199_4736_a8f6_b0156696aa6b_Class33 ( obj_9d7a35ca_bc71_4626_ad57_fef4ce50267c o )  ) ) ( type_3ff03f72_d199_4736_a8f6_b0156696aa6b_Class22 ( obj_9d7a35ca_bc71_4626_ad57_fef4ce50267c o )  ) ) ( type_3ff03f72_d199_4736_a8f6_b0156696aa6b_Class29 ( obj_9d7a35ca_bc71_4626_ad57_fef4ce50267c o )  ) ) ( type_3ff03f72_d199_4736_a8f6_b0156696aa6b_Class39 ( obj_9d7a35ca_bc71_4626_ad57_fef4ce50267c o )  ) ) ( type_3ff03f72_d199_4736_a8f6_b0156696aa6b_Class50 ( obj_9d7a35ca_bc71_4626_ad57_fef4ce50267c o )  ) ) ( type_3ff03f72_d199_4736_a8f6_b0156696aa6b_Class41 ( obj_9d7a35ca_bc71_4626_ad57_fef4ce50267c o )  ) )):named c44))
(assert (! (exists ((o Int)) (and ( type_3ff03f72_d199_4736_a8f6_b0156696aa6b_Class5 ( obj_9d7a35ca_bc71_4626_ad57_fef4ce50267c o )  )  ( type_3ff03f72_d199_4736_a8f6_b0156696aa6b_Class39 ( obj_9d7a35ca_bc71_4626_ad57_fef4ce50267c o )  ) )):named c45))
(assert (! (exists ((o Int)) (and (and (and (and (and (and (and (and ( type_3ff03f72_d199_4736_a8f6_b0156696aa6b_Class50 ( obj_9d7a35ca_bc71_4626_ad57_fef4ce50267c o )  )  ( type_3ff03f72_d199_4736_a8f6_b0156696aa6b_Class45 ( obj_9d7a35ca_bc71_4626_ad57_fef4ce50267c o )  ) ) ( type_3ff03f72_d199_4736_a8f6_b0156696aa6b_Class12 ( obj_9d7a35ca_bc71_4626_ad57_fef4ce50267c o )  ) ) ( type_3ff03f72_d199_4736_a8f6_b0156696aa6b_Class55 ( obj_9d7a35ca_bc71_4626_ad57_fef4ce50267c o )  ) ) ( type_3ff03f72_d199_4736_a8f6_b0156696aa6b_Class33 ( obj_9d7a35ca_bc71_4626_ad57_fef4ce50267c o )  ) ) ( type_3ff03f72_d199_4736_a8f6_b0156696aa6b_Class22 ( obj_9d7a35ca_bc71_4626_ad57_fef4ce50267c o )  ) ) ( type_3ff03f72_d199_4736_a8f6_b0156696aa6b_Class29 ( obj_9d7a35ca_bc71_4626_ad57_fef4ce50267c o )  ) ) ( type_3ff03f72_d199_4736_a8f6_b0156696aa6b_Class39 ( obj_9d7a35ca_bc71_4626_ad57_fef4ce50267c o )  ) ) ( type_3ff03f72_d199_4736_a8f6_b0156696aa6b_Class41 ( obj_9d7a35ca_bc71_4626_ad57_fef4ce50267c o )  ) )):named c46))
(assert (! (exists ((o Int)) (and (and (and (and (and (and ( type_3ff03f72_d199_4736_a8f6_b0156696aa6b_Class51 ( obj_9d7a35ca_bc71_4626_ad57_fef4ce50267c o )  )  ( type_3ff03f72_d199_4736_a8f6_b0156696aa6b_Class45 ( obj_9d7a35ca_bc71_4626_ad57_fef4ce50267c o )  ) ) ( type_3ff03f72_d199_4736_a8f6_b0156696aa6b_Class12 ( obj_9d7a35ca_bc71_4626_ad57_fef4ce50267c o )  ) ) ( type_3ff03f72_d199_4736_a8f6_b0156696aa6b_Class33 ( obj_9d7a35ca_bc71_4626_ad57_fef4ce50267c o )  ) ) ( type_3ff03f72_d199_4736_a8f6_b0156696aa6b_Class22 ( obj_9d7a35ca_bc71_4626_ad57_fef4ce50267c o )  ) ) ( type_3ff03f72_d199_4736_a8f6_b0156696aa6b_Class16 ( obj_9d7a35ca_bc71_4626_ad57_fef4ce50267c o )  ) ) ( type_3ff03f72_d199_4736_a8f6_b0156696aa6b_Class39 ( obj_9d7a35ca_bc71_4626_ad57_fef4ce50267c o )  ) )):named c47))
(assert (! (exists ((o Int)) (and (and (and (and (and ( type_3ff03f72_d199_4736_a8f6_b0156696aa6b_Class52 ( obj_9d7a35ca_bc71_4626_ad57_fef4ce50267c o )  )  ( type_3ff03f72_d199_4736_a8f6_b0156696aa6b_Class45 ( obj_9d7a35ca_bc71_4626_ad57_fef4ce50267c o )  ) ) ( type_3ff03f72_d199_4736_a8f6_b0156696aa6b_Class12 ( obj_9d7a35ca_bc71_4626_ad57_fef4ce50267c o )  ) ) ( type_3ff03f72_d199_4736_a8f6_b0156696aa6b_Class33 ( obj_9d7a35ca_bc71_4626_ad57_fef4ce50267c o )  ) ) ( type_3ff03f72_d199_4736_a8f6_b0156696aa6b_Class22 ( obj_9d7a35ca_bc71_4626_ad57_fef4ce50267c o )  ) ) ( type_3ff03f72_d199_4736_a8f6_b0156696aa6b_Class39 ( obj_9d7a35ca_bc71_4626_ad57_fef4ce50267c o )  ) )):named c48))
(assert (! (exists ((o Int)) ( type_3ff03f72_d199_4736_a8f6_b0156696aa6b_Class53 ( obj_9d7a35ca_bc71_4626_ad57_fef4ce50267c o )  ) ):named c49))
(assert (! (exists ((o Int)) ( type_3ff03f72_d199_4736_a8f6_b0156696aa6b_Class54 ( obj_9d7a35ca_bc71_4626_ad57_fef4ce50267c o )  ) ):named c50))
(assert (! (exists ((o Int)) (and (and (and (and (and (and (and ( type_3ff03f72_d199_4736_a8f6_b0156696aa6b_Class55 ( obj_9d7a35ca_bc71_4626_ad57_fef4ce50267c o )  )  ( type_3ff03f72_d199_4736_a8f6_b0156696aa6b_Class45 ( obj_9d7a35ca_bc71_4626_ad57_fef4ce50267c o )  ) ) ( type_3ff03f72_d199_4736_a8f6_b0156696aa6b_Class12 ( obj_9d7a35ca_bc71_4626_ad57_fef4ce50267c o )  ) ) ( type_3ff03f72_d199_4736_a8f6_b0156696aa6b_Class33 ( obj_9d7a35ca_bc71_4626_ad57_fef4ce50267c o )  ) ) ( type_3ff03f72_d199_4736_a8f6_b0156696aa6b_Class22 ( obj_9d7a35ca_bc71_4626_ad57_fef4ce50267c o )  ) ) ( type_3ff03f72_d199_4736_a8f6_b0156696aa6b_Class29 ( obj_9d7a35ca_bc71_4626_ad57_fef4ce50267c o )  ) ) ( type_3ff03f72_d199_4736_a8f6_b0156696aa6b_Class39 ( obj_9d7a35ca_bc71_4626_ad57_fef4ce50267c o )  ) ) ( type_3ff03f72_d199_4736_a8f6_b0156696aa6b_Class41 ( obj_9d7a35ca_bc71_4626_ad57_fef4ce50267c o )  ) )):named c51))
(assert (! (exists ((o Int)) ( type_3ff03f72_d199_4736_a8f6_b0156696aa6b_Class6 ( obj_9d7a35ca_bc71_4626_ad57_fef4ce50267c o )  ) ):named c52))
(assert (! (exists ((o Int)) (and (and (and (and (and (and (and (and (and ( type_3ff03f72_d199_4736_a8f6_b0156696aa6b_Class7 ( obj_9d7a35ca_bc71_4626_ad57_fef4ce50267c o )  )  ( type_3ff03f72_d199_4736_a8f6_b0156696aa6b_Class45 ( obj_9d7a35ca_bc71_4626_ad57_fef4ce50267c o )  ) ) ( type_3ff03f72_d199_4736_a8f6_b0156696aa6b_Class12 ( obj_9d7a35ca_bc71_4626_ad57_fef4ce50267c o )  ) ) ( type_3ff03f72_d199_4736_a8f6_b0156696aa6b_Class55 ( obj_9d7a35ca_bc71_4626_ad57_fef4ce50267c o )  ) ) ( type_3ff03f72_d199_4736_a8f6_b0156696aa6b_Class33 ( obj_9d7a35ca_bc71_4626_ad57_fef4ce50267c o )  ) ) ( type_3ff03f72_d199_4736_a8f6_b0156696aa6b_Class22 ( obj_9d7a35ca_bc71_4626_ad57_fef4ce50267c o )  ) ) ( type_3ff03f72_d199_4736_a8f6_b0156696aa6b_Class29 ( obj_9d7a35ca_bc71_4626_ad57_fef4ce50267c o )  ) ) ( type_3ff03f72_d199_4736_a8f6_b0156696aa6b_Class39 ( obj_9d7a35ca_bc71_4626_ad57_fef4ce50267c o )  ) ) ( type_3ff03f72_d199_4736_a8f6_b0156696aa6b_Class50 ( obj_9d7a35ca_bc71_4626_ad57_fef4ce50267c o )  ) ) ( type_3ff03f72_d199_4736_a8f6_b0156696aa6b_Class41 ( obj_9d7a35ca_bc71_4626_ad57_fef4ce50267c o )  ) )):named c53))
(assert (! (exists ((o Int)) (and ( type_3ff03f72_d199_4736_a8f6_b0156696aa6b_Class8 ( obj_9d7a35ca_bc71_4626_ad57_fef4ce50267c o )  )  ( type_3ff03f72_d199_4736_a8f6_b0156696aa6b_Class39 ( obj_9d7a35ca_bc71_4626_ad57_fef4ce50267c o )  ) )):named c54))
(assert (! (exists ((o Int)) ( type_3ff03f72_d199_4736_a8f6_b0156696aa6b_Class9 ( obj_9d7a35ca_bc71_4626_ad57_fef4ce50267c o )  ) ):named c55))

 ;end of formula 